NAME : pr152.147612.tour
COMMENT : Cost = 32247_147612
COMMENT : Found by LKH [Keld Helsgaun] Thu Nov 16 17:46:25 2017
TYPE : TOUR
DIMENSION : 156
TOUR_SECTION
1
35
45
54
69
80
113
100
81
101
102
103
88
82
112
111
104
87
83
105
106
107
86
110
109
108
85
84
41
60
61
62
63
64
59
58
42
43
57
65
66
67
68
56
55
44
34
155
51
73
92
95
116
121
132
131
147
148
149
130
129
122
123
128
127
151
150
152
126
125
124
93
94
77
75
74
76
50
49
48
156
2
15
3
14
4
13
5
12
6
11
7
10
8
9
17
18
40
19
21
20
22
23
39
24
25
26
27
28
38
29
30
31
32
33
37
16
153
36
117
140
139
141
142
143
138
137
118
89
154
47
78
91
96
115
120
133
134
146
145
144
135
136
119
114
90
99
98
97
79
70
71
72
53
52
46
-1
EOF
